%SETS
JOBS     = 1..2;
MACHINES = 1..13;
SPEED    = 1;

time               = array3d(JOBS,MACHINES,1..SPEED,[93, 16, 17, 11, 84, 80, 88, 98, 81, 51, 80, 20, 67, 22, 95, 56, 47, 33, 79, 51, 61, 11, 65, 65, 65, 94]);
energy             = array3d(JOBS,MACHINES,1..SPEED,[39, 85, 84, 89, 43, 44, 41, 37, 44, 60, 44, 81, 51, 80, 38, 57, 62, 71, 45, 60, 54, 89, 52, 52, 52, 39]);
precedence         = array2d(JOBS,MACHINES,[1,8,3,4,2,0,5,6,9,12,11,10,7,11,0,1,10,8,9,5,3,6,4,7,12,2]);